231 440
2 1 4
28 1 -4
88 1 4
97 1 -4
95 2 -4
96 2 -4
187 2 4
130 3 -4
151 3 4
174 3 4
192 3 -4
5 4 4
70 4 -4
201 4 4
202 4 -4
13 5 -4
71 5 -4
229 5 4
7 6 4
36 6 4
119 6 -4
140 6 -4
35 7 4
73 7 -4
75 7 -4
17 8 -4
70 8 4
198 8 -4
224 8 4
10 9 4
11 9 -4
30 9 4
121 9 -4
72 10 -4
73 10 -4
161 10 4
39 11 4
40 11 4
77 11 -4
22 12 -4
143 12 4
163 12 -4
182 12 4
23 13 4
151 13 -4
227 13 4
19 14 4
74 14 -4
106 14 -4
137 14 4
107 15 -4
141 15 -4
165 15 4
209 15 4
143 16 -4
145 16 4
165 16 4
168 16 -4
42 17 4
176 17 4
223 17 -4
72 18 -4
138 18 4
72 19 -4
181 19 4
208 19 -4
44 20 4
86 20 4
122 20 -4
181 20 -4
22 21 -4
32 21 4
185 21 4
188 21 -4
50 22 4
124 22 4
129 23 4
150 23 -4
196 23 -4
73 24 -4
118 24 4
40 25 4
141 25 -4
161 25 -4
209 25 4
47 26 4
208 26 -4
209 26 -4
210 26 4
107 27 -4
167 27 4
213 27 4
216 27 -4
33 28 4
147 28 -4
167 28 4
35 29 -4
163 29 -4
182 29 4
207 29 4
160 30 -4
182 30 -4
183 30 4
60 31 -4
95 31 4
182 31 4
183 31 -4
76 32 -4
124 32 -4
169 32 4
76 33 -4
84 33 4
90 33 -4
58 34 4
111 34 -4
173 34 -4
224 34 4
63 35 4
139 35 -4
47 36 -4
52 36 4
163 36 -4
52 37 -4
64 37 -4
163 37 4
213 37 4
55 38 4
100 38 -4
149 38 -4
194 38 4
62 39 -4
204 39 4
206 39 -4
106 40 -4
121 40 -4
79 41 4
88 41 -4
124 41 4
186 41 -4
46 42 -4
127 42 -4
195 42 4
49 43 4
85 43 -4
102 43 4
114 43 -4
120 44 4
140 44 -4
206 44 -4
81 45 4
83 45 -4
144 45 4
166 45 -4
82 46 -4
219 46 4
222 46 4
139 47 4
180 47 -4
51 48 4
101 48 -4
103 48 4
115 48 -4
103 49 -4
96 50 -4
142 50 4
183 50 -4
54 51 4
91 51 -4
112 51 -4
87 52 4
162 52 -4
170 53 4
215 53 4
216 53 -4
218 53 -4
55 54 4
101 54 -4
195 54 -4
175 55 -4
176 55 -4
108 56 4
211 56 4
212 56 -4
214 56 -4
69 57 4
126 57 4
189 57 -4
217 57 -4
112 58 4
150 58 -4
152 58 -4
123 59 4
207 59 4
208 59 -4
210 59 -4
124 60 4
184 60 4
186 60 -4
62 61 4
137 61 4
139 61 -4
159 61 -4
142 63 4
181 63 -4
183 63 -4
144 64 4
164 64 4
166 64 -4
66 65 4
158 65 4
159 65 -4
180 65 -4
205 66 -4
68 67 4
178 67 -4
228 68 4
229 68 -4
231 68 -4
192 69 4
218 69 -4
221 69 -4
71 70 -4
154 70 -4
131 71 -4
194 71 4
158 72 4
179 73 4
77 74 -4
105 75 -4
119 75 -4
204 75 4
89 76 -4
187 76 4
117 77 -4
119 77 -4
89 78 -4
98 78 -4
145 78 -4
215 78 4
98 79 -4
109 79 -4
168 79 -4
92 80 -4
202 80 -4
109 81 -4
125 81 -4
188 81 -4
89 82 4
100 82 -4
109 82 -4
125 83 -4
146 83 -4
216 83 -4
100 84 -4
111 84 -4
125 84 -4
115 85 -4
87 86 -4
94 86 -4
162 86 -4
95 87 -4
107 87 -4
146 88 -4
170 88 -4
99 89 -4
111 90 -4
127 90 -4
146 90 -4
92 91 4
113 91 -4
135 91 -4
93 92 -4
134 92 -4
135 93 -4
96 94 -4
122 94 -4
185 94 4
97 95 -4
97 96 -4
187 97 -4
110 98 -4
219 98 -4
127 99 -4
149 99 -4
170 99 -4
128 100 -4
102 101 -4
132 101 -4
133 102 -4
156 102 -4
104 103 -4
155 103 -4
156 104 -4
118 105 -4
118 106 -4
160 106 -4
108 107 4
167 108 -4
215 108 4
126 109 -4
149 110 -4
173 110 -4
218 110 4
222 111 -4
113 112 -4
225 112 -4
114 113 -4
152 113 -4
153 114 -4
178 114 -4
116 115 -4
228 115 -4
178 116 -4
138 117 -4
120 118 -4
207 119 4
138 120 -4
207 120 -4
122 121 -4
123 121 4
184 122 4
184 123 -4
211 123 4
148 125 -4
173 126 -4
191 126 -4
129 127 -4
130 128 -4
131 128 -4
221 128 -4
131 129 -4
191 129 -4
132 130 4
196 130 -4
132 131 -4
133 132 -4
134 133 -4
176 133 -4
177 134 -4
201 134 -4
136 135 -4
200 135 -4
201 136 -4
139 138 -4
141 140 -4
142 140 4
164 141 4
164 142 -4
144 143 4
211 143 4
145 144 -4
169 145 -4
172 146 -4
169 147 -4
172 147 -4
219 147 -4
171 148 4
191 148 -4
220 148 -4
150 149 -4
220 150 -4
152 151 4
222 151 4
153 152 -4
155 153 -4
197 153 -4
178 154 4
198 154 -4
230 154 -4
199 155 -4
230 155 -4
157 156 -4
229 156 -4
230 157 -4
160 159 4
161 159 -4
162 160 -4
162 161 -4
185 164 4
166 165 4
184 165 4
168 166 -4
189 167 4
189 168 -4
171 169 -4
190 170 -4
189 171 -4
190 171 -4
174 172 -4
220 172 -4
175 173 -4
175 174 -4
190 174 -4
224 175 -4
177 176 -4
226 177 -4
228 177 -4
205 179 4
181 180 -4
205 180 -4
186 185 4
188 186 -4
217 187 4
217 188 -4
192 190 -4
193 191 -4
193 192 -4
194 193 -4
195 193 -4
197 194 4
197 195 -4
198 196 -4
199 196 4
199 197 -4
200 198 4
200 199 -4
202 200 -4
203 201 -4
203 202 -4
206 205 -4
208 206 -4
212 209 4
211 210 -4
212 210 -4
213 212 -4
214 213 4
215 214 -4
216 214 -4
218 217 -4
221 219 -4
223 220 -4
223 221 -4
225 222 4
225 223 -4
226 224 4
226 225 -4
227 226 -4
228 227 -4
229 227 -4
231 230 -4
162
70 2
71 2
72 2
73 2
74 2
75 2
76 2
77 4
78 2
79 2
80 2
81 2
82 2
83 4
84 2
85 2
86 2
87 2
88 2
89 2
90 4
91 2
92 2
93 2
94 2
95 2
96 4
97 4
98 4
99 4
100 4
101 4
102 2
103 2
104 2
105 2
106 4
107 2
108 -2
109 4
110 2
111 4
112 2
113 4
114 4
115 4
116 2
117 2
118 2
119 2
120 2
121 2
122 2
123 -2
124 -2
125 4
126 2
127 4
128 4
129 2
130 2
131 4
132 2
133 4
134 4
135 4
136 2
137 -2
138 2
139 2
140 2
141 2
142 -2
143 -2
144 -2
145 2
146 4
147 4
148 2
149 4
150 4
151 -2
152 2
153 4
154 2
155 4
156 4
157 2
158 -2
159 2
160 2
161 2
162 4
163 2
164 -2
165 -4
166 2
167 -2
168 4
169 2
170 2
171 2
172 4
173 4
174 2
175 4
176 2
177 4
178 2
179 -2
180 4
181 2
182 -2
183 2
184 -2
185 -4
186 2
187 -2
188 4
189 2
190 4
191 4
192 2
193 4
194 -2
195 2
196 2
197 2
198 2
199 2
200 2
201 2
202 4
203 2
204 -2
205 2
206 4
207 -2
208 4
209 -2
210 2
211 -2
212 2
213 -2
214 2
215 -2
216 4
217 2
218 2
219 2
220 4
221 4
222 -2
223 4
224 -2
225 2
226 2
227 2
228 2
229 2
230 4
231 2
